100 2 100
92 20 49 89 88 39 58 37 71 94 54 17 64 77 39 79 24 3 29 19 63 4 71 95 6 80 7 9 83 38 78 27 59 27 68 99 19 27 37 42 73 91 11 37 69 50 17 45 53 46 16 69 2 87 64 9 67 23 18 50 14 96 30 73 76 98 24 47 77 61 89 51 53 40 74 2 9 71 8 7 87 77 10 74 41 19 41 64 37 44 78 85 26 3 13 24 28 60 54 41 
